p cnf 7230 17
-5351 -5955 6080 0
5955 -6080 0
-5377 -5967 -6085 0
5815 5957 -6083 0
5809 5959 -6081 0
5377 -6086 0
-5815 -6084 0
-5809 -6082 0
6085 6086 0
6083 6084 0
6081 6082 0
5967 -6086 0
-5957 -6084 0
-5959 -6082 0
5969 -6088 0
6079 6080 0
-6079 -6080 0
